50
120 120
1 84 562
2 84 967
3 84 739
4 79 6
5 76 798
6 74 870
7 73 464
8 73 887
9 69 346
10 68 945
11 66 257
12 66 914
13 65 386
14 64 536
15 63 875
16 62 186
17 59 962
18 58 667
19 58 287
20 58 917
21 55 467
22 53 665
23 53 842
24 52 559
25 51 622
26 50 650
27 49 155
28 44 211
29 42 504
30 42 488
31 41 5
32 41 220
33 40 189
34 40 481
35 40 253
36 37 450
37 37 285
38 34 793
39 34 807
40 32 126
41 32 22
42 31 799
43 31 967
44 31 137
45 30 548
46 28 571
47 28 181
48 27 19
49 27 73
50 25 880
